p cnf 13 58
1 2 -3 0
1 -2 3 0
-1 2 3 0
-1 -2 -3 0
4 -5 0
-4 5 0
6 7 8 0
6 -7 -8 0
-6 7 -8 0
-6 -7 8 0
6 9 10 0
6 -9 -10 0
-6 9 -10 0
-6 -9 10 0
7 11 12 0
7 -11 -12 0
-7 11 -12 0
-7 -11 12 0
1 9 -13 0
1 -9 13 0
-1 9 13 0
-1 -9 -13 0
2 4 8 10 11 13 0
2 4 8 10 -11 -13 0
2 4 8 -10 11 -13 0
2 4 8 -10 -11 13 0
2 4 -8 10 11 -13 0
2 4 -8 10 -11 13 0
2 4 -8 -10 11 13 0
2 4 -8 -10 -11 -13 0
2 -4 8 10 11 -13 0
2 -4 8 10 -11 13 0
2 -4 8 -10 11 13 0
2 -4 8 -10 -11 -13 0
2 -4 -8 10 11 13 0
2 -4 -8 10 -11 -13 0
2 -4 -8 -10 11 -13 0
2 -4 -8 -10 -11 13 0
-2 4 8 10 11 -13 0
-2 4 8 10 -11 13 0
-2 4 8 -10 11 13 0
-2 4 8 -10 -11 -13 0
-2 4 -8 10 11 13 0
-2 4 -8 10 -11 -13 0
-2 4 -8 -10 11 -13 0
-2 4 -8 -10 -11 13 0
-2 -4 8 10 11 13 0
-2 -4 8 10 -11 -13 0
-2 -4 8 -10 11 -13 0
-2 -4 8 -10 -11 13 0
-2 -4 -8 10 11 -13 0
-2 -4 -8 10 -11 13 0
-2 -4 -8 -10 11 13 0
-2 -4 -8 -10 -11 -13 0
3 5 -12 0
3 -5 12 0
-3 5 12 0
-3 -5 -12 0
